c User generated cnf file
p cnf 10 52
7 -3 1 0 
7 -5 6 0 
2 -7 6 0 
5 8 -5 0 
3 -6 9 0 
2 -4 3 0 
10 -3 7 0 
2 1 -9 0 
4 -8 2 0 
7 -9 2 0 
9 2 -5 0 
2 -7 6 0 
3 9 -5 0 
8 -7 8 0 
2 -1 4 0 
4 8 -4 0 
5 1 -3 0 
9 -5 6 0 
2 1 -1 0 
7 1 -5 0 
7 7 -3 0 
8 -7 8 0 
7 -7 9 0 
9 10 -7 0 
5 -9 2 0 
6 -8 7 0 
3 -9 6 0 
2 7 -4 0 
7 -5 4 0 
2 -5 9 0 
9 9 -1 0 
1 5 -3 0 
2 -1 8 0 
8 4 -10 0 
4 -6 9 0 
7 -6 4 0 
1 10 -10 0 
8 -8 9 0 
5 7 -2 0 
8 10 -1 0 
3 -7 6 0 
8 -5 8 0 
6 -6 3 0 
10 1 -3 0 
9 8 -8 0 
8 4 -7 0 
4 -5 10 0 
4 -3 2 0 
9 2 -9 0 
2 -5 8 0 
4 8 -2 0 
10 -5 3 0 
